3 3 2
20 2 18 1 62 2 9 0 99 1 39 2 98 1 2 0 41 2 73 0 47 2 22 1 37 0 86 2 42 1 89 0 28 2 43 1 85 2 79 1 17 
20 0 6 2 95 1 68 0 94 2 94 1 69 0 6 1 79 2 78 1 65 0 72 1 8 0 11 2 25 0 53 2 50 1 57 0 81 2 54 0 28 
20 2 9 0 88 2 81 0 55 2 90 1 51 0 1 1 81 2 63 1 33 0 46 2 11 0 5 1 90 0 68 1 8 0 0 2 85 1 94 2 11 

-------------
